benchmarks/bfuzz0/19100164736741523622001646785201880.smt2
(set-logic QF_FP)
(declare-const x0 (_ FloatingPoint 8 24))
(declare-const x1 (_ FloatingPoint 8 24))
(declare-const x2 (_ FloatingPoint 8 24))
(declare-const x3 (_ FloatingPoint 8 24))
(declare-const x4 (_ FloatingPoint 8 24))
(declare-const x5 (_ FloatingPoint 8 24))
(declare-const x6 (_ FloatingPoint 8 24))
(declare-const x7 (_ FloatingPoint 8 24))
(declare-const x8 (_ FloatingPoint 8 24))
(declare-const x9 (_ FloatingPoint 8 24))
(declare-const x10 (_ FloatingPoint 8 24))
(declare-const x11 (_ FloatingPoint 8 24))
(declare-const x12 (_ FloatingPoint 8 24))
(assert (fp.lt (fp.mul RNE (fp.add RNE x0 x9) (fp.neg x6)) (fp.neg (fp.div RNE x1 x11))))
(assert (fp.eq (fp.mul RNE (fp.div RNE x6 x4) (fp.neg x4)) (fp.div RNE (fp.neg x9) (fp.sub RNE x5 x7))))
(assert (fp.gt (fp.add RNE (fp.add RNE x12 x9) (fp.add RNE x4 x12)) (fp.mul RNE (fp.div RNE x0 x12) (fp.neg x9))))
(assert (fp.leq (fp.div RNE (fp.div RNE x0 x7) (fp.div RNE x2 x12)) (fp.div RNE (fp.mul RNE x4 x2) (fp.div RNE x7 x12))))
(check-sat)
