db/data/19100164736741523622001646785201880.z3.out
sat
-------------------
354.849031172
